586169 13445.8
146289 381946
1138.53 554132
186999 343581
470166 101425
197492 333293
509266 60335.6
184393 349962
313527 241627
450059 109550
186426 348979
366584 195165
58882.7 476961
421233 147107
322335 214263
21230.3 544491
299989 265130
499098 72992.2
183402 366319
53871.7 486582
242641 328384
380730 159967
373629 182618
301014 247822
67494.9 473753
117592 439744
471615 83797.7
455590 108028
515411 35844.8
140192 401874
105642 458353
23545.7 538734
425325 122144
401404 156486
429967 116226
107529 442171
334194 208754
34827.6 517393
376315 174943
126282 424593
282942 282598
119982 438038
267769 296820
98089.4 461774
169586 380745
422734 143884
135752 413353
479415 80899.6
267932 292118
406709 149413
51089.1 498946
427883 118325
246167 302149
263034 300077
127448 419718
421300 146917
133940 418386
132928 418781
